\Problem name: IloCplex

Maximize
 obj: 109 y_0 + 63 y_1 + 41 y_2 + 138 y_3 + 105 y_4 + 122 y_5 + 231 y_6
      + 82 y_7 + 107 y_8 + 138 y_9 + 231 y_10 + 81 y_11 + 176 y_12 + 142 y_13
      + 192 y_14 + 89 y_15 + 104 y_16 + 44 y_17 + 181 y_18 + 82 y_19 + 43 y_20
      + 117 y_21 + 117 y_22 + 106 y_23 + 227 y_24 + 218 y_25 + 14 y_26
      + 116 y_27 + 194 y_28 + 58 y_29 + 100 y_30 + 184 y_31 + 39 y_32
      + 216 y_33 + 81 y_34 + 190 y_35 + 200 y_36 + 75 y_37 + 146 y_38
      + 210 y_39 + 104 y_40 + 125 y_41 + 147 y_42 + 63 y_43 + 152 y_44
      + 74 y_45 + y_46 + 221 y_47 + 53 y_48 + 97 y_49 + 57 y_50 + 14 y_51
      + 132 y_52 + 203 y_53 + 179 y_54 + 86 y_55 + 116 y_56 + 44 y_57
      + 237 y_58 + 58 y_59 + 63 y_60 + 126 y_61 + 80 y_62 + 153 y_63 + 41 y_64
      + 201 y_65 + 104 y_66 + 99 y_67 + 80 y_68 + 193 y_69 + 300 y_70
      + 112 y_71 + 182 y_72 + 145 y_73 + 97 y_74 + 123 y_75 + 234 y_76
      + 63 y_77 + 101 y_78 + 92 y_79 + 107 y_80 + 223 y_81 + 99 y_82 + 63 y_83
      + 209 y_84 + 68 y_85 + 97 y_86 + 74 y_87 + 104 y_88 + 15 y_89 + 290 y_90
      + 186 y_91 + 153 y_92 + 125 y_93 + 277 y_94 + 124 y_95 + 104 y_96
      + 25 y_97 + 176 y_98 + 97 y_99
Subject To
 id259: y_24 + y_43 + y_53 + y_58 + y_65 + y_78 + y_88  <= 1
 id262: y_4 + y_13 + y_22 + y_28 + y_31 + y_35 + y_37 + y_47 + y_76 + y_79
        + y_84 + y_87 + y_94  <= 1
 id265: y_3 + y_7 + y_8 + y_18 + y_19 + y_28 + y_41 + y_44 + y_47 + y_61 + y_70
        + y_72 + y_73 + y_75 + y_81 + y_93  <= 1
 id268: y_12 + y_15 + y_27 + y_39 + y_46 + y_54 + y_59 + y_62 + y_63 + y_78
        + y_89 + y_95  <= 1
 id271: y_3 + y_13 + y_14 + y_24 + y_30 + y_32 + y_37 + y_51 + y_59 
        <= 1
 id274: y_3 + y_21 + y_81  <= 1
 id277: y_10 + y_18 + y_22 + y_31 + y_34 + y_42 + y_72 + y_81 + y_92 + y_99
         <= 1
 id280: y_0 + y_4 + y_6 + y_10 + y_11 + y_14 + y_38 + y_39 + y_53 + y_54 + y_63
        + y_90  <= 1
 id283: y_14 + y_18 + y_20 + y_23 + y_25 + y_41 + y_50 + y_53 + y_54 + y_59
        + y_63 + y_70 + y_71 + y_79 + y_81 + y_85 + y_93  <= 1
 id286: y_1 + y_16 + y_21 + y_23 + y_28 + y_33 + y_40 + y_56 + y_58 + y_60
        + y_66 + y_73 + y_77 + y_80 + y_83 + y_84 + y_90 + y_91  <= 1
 id289: y_21 + y_22 + y_30 + y_37 + y_38 + y_42 + y_44 + y_47 + y_55 + y_78
         <= 1
 id292: y_5 + y_6 + y_10 + y_12 + y_25 + y_36 + y_38 + y_47 + y_69 + y_70
        + y_94  <= 1
 id295: y_8 + y_11 + y_32 + y_34 + y_36 + y_67 + y_68 + y_71 + y_78 + y_82
        + y_85 + y_87 + y_96 + y_97  <= 1
 id298: y_13 + y_14 + y_31 + y_33 + y_39 + y_42 + y_52 + y_54 + y_62 + y_91
        + y_95 + y_96 + y_98  <= 1
 id301: y_0 + y_12 + y_24 + y_36 + y_48 + y_52 + y_56 + y_63 + y_86 + y_94
         <= 1
 id304: y_5 + y_12 + y_17 + y_29 + y_35 + y_36 + y_44 + y_57 + y_61 + y_71
        + y_72 + y_80 + y_86 + y_91 + y_95  <= 1
 id307: y_6 + y_9 + y_24 + y_25 + y_35 + y_49 + y_58 + y_65 + y_70 + y_74
        + y_76 + y_84 + y_90 + y_92 + y_94 + y_98  <= 1
 id310: y_15 + y_27 + y_30 + y_33 + y_39 + y_45 + y_55 + y_67 + y_69 + y_76
        + y_82 + y_90  <= 1
 id313: y_2 + y_9 + y_10 + y_16 + y_27 + y_40 + y_53 + y_64 + y_65 + y_66
        + y_68 + y_69 + y_75 + y_88 + y_99  <= 1
 id316: y_15 + y_26 + y_29 + y_44 + y_50 + y_58 + y_68 + y_76 + y_89 
        <= 1
 id318: y_0 - xij_0_2  = 0
 id320: y_1 - xij_1_2  = 0
 id322: y_2 - xij_2_5  = 0
 id324: y_3 - xij_3_1 - xij_3_4  = 0
 id326: y_4 - xij_4_5  = 0
 id328: y_5 - xij_5_3 - xij_5_5  = 0
 id330: y_6 - xij_6_5 - xij_6_1  = 0
 id332: y_7 - xij_7_5 - xij_7_2  = 0
 id334: y_8 - xij_8_5 - xij_8_3  = 0
 id336: y_9 - xij_9_4  = 0
 id338: y_10 - xij_10_1 - xij_10_4  = 0
 id340: y_11 - xij_11_3 - xij_11_1  = 0
 id342: y_12 - xij_12_5 - xij_12_3  = 0
 id344: y_13 - xij_13_4 - xij_13_1  = 0
 id346: y_14 - xij_14_3 - xij_14_4  = 0
 id348: y_15 - xij_15_4 - xij_15_1  = 0
 id350: y_16 - xij_16_4 - xij_16_3  = 0
 id352: y_17 - xij_17_3 - xij_17_1  = 0
 id354: y_18 - xij_18_3 - xij_18_5  = 0
 id356: y_19 - xij_19_1 - xij_19_4  = 0
 id358: y_20 - xij_20_4  = 0
 id360: y_21 - xij_21_2  = 0
 id362: y_22 - xij_22_4 - xij_22_3  = 0
 id364: y_23 - xij_23_4 - xij_23_1  = 0
 id366: y_24 - xij_24_3 - xij_24_2  = 0
 id368: y_25 - xij_25_1  = 0
 id370: y_26 - xij_26_1 - xij_26_4  = 0
 id372: y_27 - xij_27_1  = 0
 id374: y_28 - xij_28_1  = 0
 id376: y_29 - xij_29_2 - xij_29_1  = 0
 id378: y_30 - xij_30_3  = 0
 id380: y_31 - xij_31_1 - xij_31_5  = 0
 id382: y_32 - xij_32_5 - xij_32_1  = 0
 id384: y_33 - xij_33_5  = 0
 id386: y_34 - xij_34_3  = 0
 id388: y_35 - xij_35_2 - xij_35_4  = 0
 id390: y_36 - xij_36_2 - xij_36_5  = 0
 id392: y_37 - xij_37_5  = 0
 id394: y_38 - xij_38_3 - xij_38_1  = 0
 id396: y_39 - xij_39_1 - xij_39_2  = 0
 id398: y_40 - xij_40_3  = 0
 id400: y_41 - xij_41_1  = 0
 id402: y_42 - xij_42_3  = 0
 id404: y_43 - xij_43_4 - xij_43_5  = 0
 id406: y_44 - xij_44_3 - xij_44_2  = 0
 id408: y_45 - xij_45_3 - xij_45_5  = 0
 id410: y_46 - xij_46_3 - xij_46_5  = 0
 id412: y_47 - xij_47_4  = 0
 id414: y_48 - xij_48_3  = 0
 id416: y_49 - xij_49_4  = 0
 id418: y_50 - xij_50_3  = 0
 id420: y_51 - xij_51_1 - xij_51_5  = 0
 id422: y_52 - xij_52_3  = 0
 id424: y_53 - xij_53_1  = 0
 id426: y_54 - xij_54_2  = 0
 id428: y_55 - xij_55_2 - xij_55_3  = 0
 id430: y_56 - xij_56_1 - xij_56_5  = 0
 id432: y_57 - xij_57_4  = 0
 id434: y_58 - xij_58_2  = 0
 id436: y_59 - xij_59_5  = 0
 id438: y_60 - xij_60_4  = 0
 id440: y_61 - xij_61_4  = 0
 id442: y_62 - xij_62_3 - xij_62_1  = 0
 id444: y_63 - xij_63_5  = 0
 id446: y_64 - xij_64_1 - xij_64_3  = 0
 id448: y_65 - xij_65_3  = 0
 id450: y_66 - xij_66_4  = 0
 id452: y_67 - xij_67_2 - xij_67_1  = 0
 id454: y_68 - xij_68_4  = 0
 id456: y_69 - xij_69_5 - xij_69_1  = 0
 id458: y_70 - xij_70_2  = 0
 id460: y_71 - xij_71_1  = 0
 id462: y_72 - xij_72_3  = 0
 id464: y_73 - xij_73_4  = 0
 id466: y_74 - xij_74_2 - xij_74_3  = 0
 id468: y_75 - xij_75_3  = 0
 id470: y_76 - xij_76_2 - xij_76_5  = 0
 id472: y_77 - xij_77_2 - xij_77_3  = 0
 id474: y_78 - xij_78_3 - xij_78_2  = 0
 id476: y_79 - xij_79_2 - xij_79_4  = 0
 id478: y_80 - xij_80_5 - xij_80_1  = 0
 id480: y_81 - xij_81_3 - xij_81_2  = 0
 id482: y_82 - xij_82_4 - xij_82_3  = 0
 id484: y_83 - xij_83_5  = 0
 id486: y_84 - xij_84_3  = 0
 id488: y_85 - xij_85_5 - xij_85_3  = 0
 id490: y_86 - xij_86_3 - xij_86_4  = 0
 id492: y_87 - xij_87_1 - xij_87_3  = 0
 id494: y_88 - xij_88_1  = 0
 id496: y_89 - xij_89_4  = 0
 id498: y_90 - xij_90_5  = 0
 id500: y_91 - xij_91_2 - xij_91_1  = 0
 id502: y_92 - xij_92_1 - xij_92_2  = 0
 id504: y_93 - xij_93_2  = 0
 id506: y_94 - xij_94_1  = 0
 id508: y_95 - xij_95_1 - xij_95_4  = 0
 id510: y_96 - xij_96_2 - xij_96_4  = 0
 id512: y_97 - xij_97_3  = 0
 id514: y_98 - xij_98_2  = 0
 id516: y_99 - xij_99_2 - xij_99_1  = 0
 id518: xij_3_1 + xij_6_1 + xij_10_1 + xij_11_1 + xij_13_1 + xij_15_1
        + xij_17_1 + xij_19_1 + xij_23_1 + xij_25_1 + xij_26_1 + xij_27_1
        + xij_28_1 + xij_29_1 + xij_31_1 + xij_32_1 + xij_38_1 + xij_39_1
        + xij_41_1 + xij_51_1 + xij_53_1 + xij_56_1 + xij_62_1 + xij_64_1
        + xij_67_1 + xij_69_1 + xij_71_1 + xij_80_1 + xij_87_1 + xij_88_1
        + xij_91_1 + xij_92_1 + xij_94_1 + xij_95_1 + xij_99_1  = 1
 id520: xij_0_2 + xij_1_2 + xij_7_2 + xij_21_2 + xij_24_2 + xij_29_2 + xij_35_2
        + xij_36_2 + xij_39_2 + xij_44_2 + xij_54_2 + xij_55_2 + xij_58_2
        + xij_67_2 + xij_70_2 + xij_74_2 + xij_76_2 + xij_77_2 + xij_78_2
        + xij_79_2 + xij_81_2 + xij_91_2 + xij_92_2 + xij_93_2 + xij_96_2
        + xij_98_2 + xij_99_2  = 1
 id522: xij_5_3 + xij_8_3 + xij_11_3 + xij_12_3 + xij_14_3 + xij_16_3
        + xij_17_3 + xij_18_3 + xij_22_3 + xij_24_3 + xij_30_3 + xij_34_3
        + xij_38_3 + xij_40_3 + xij_42_3 + xij_44_3 + xij_45_3 + xij_46_3
        + xij_48_3 + xij_50_3 + xij_52_3 + xij_55_3 + xij_62_3 + xij_64_3
        + xij_65_3 + xij_72_3 + xij_74_3 + xij_75_3 + xij_77_3 + xij_78_3
        + xij_81_3 + xij_82_3 + xij_84_3 + xij_85_3 + xij_86_3 + xij_87_3
        + xij_97_3  = 1
 id524: xij_3_4 + xij_9_4 + xij_10_4 + xij_13_4 + xij_14_4 + xij_15_4
        + xij_16_4 + xij_19_4 + xij_20_4 + xij_22_4 + xij_23_4 + xij_26_4
        + xij_35_4 + xij_43_4 + xij_47_4 + xij_49_4 + xij_57_4 + xij_60_4
        + xij_61_4 + xij_66_4 + xij_68_4 + xij_73_4 + xij_79_4 + xij_82_4
        + xij_86_4 + xij_89_4 + xij_95_4 + xij_96_4  = 1
 id526: xij_2_5 + xij_4_5 + xij_5_5 + xij_6_5 + xij_7_5 + xij_8_5 + xij_12_5
        + xij_18_5 + xij_31_5 + xij_32_5 + xij_33_5 + xij_36_5 + xij_37_5
        + xij_43_5 + xij_45_5 + xij_46_5 + xij_51_5 + xij_56_5 + xij_59_5
        + xij_63_5 + xij_69_5 + xij_76_5 + xij_80_5 + xij_83_5 + xij_85_5
        + xij_90_5  = 1
Bounds
 0 <= y_0 <= 1
 0 <= y_1 <= 1
 0 <= y_2 <= 1
 0 <= y_3 <= 1
 0 <= y_4 <= 1
 0 <= y_5 <= 1
 0 <= y_6 <= 1
 0 <= y_7 <= 1
 0 <= y_8 <= 1
 0 <= y_9 <= 1
 0 <= y_10 <= 1
 0 <= y_11 <= 1
 0 <= y_12 <= 1
 0 <= y_13 <= 1
 0 <= y_14 <= 1
 0 <= y_15 <= 1
 0 <= y_16 <= 1
 0 <= y_17 <= 1
 0 <= y_18 <= 1
 0 <= y_19 <= 1
 0 <= y_20 <= 1
 0 <= y_21 <= 1
 0 <= y_22 <= 1
 0 <= y_23 <= 1
 0 <= y_24 <= 1
 0 <= y_25 <= 1
 0 <= y_26 <= 1
 0 <= y_27 <= 1
 0 <= y_28 <= 1
 0 <= y_29 <= 1
 0 <= y_30 <= 1
 0 <= y_31 <= 1
 0 <= y_32 <= 1
 0 <= y_33 <= 1
 0 <= y_34 <= 1
 0 <= y_35 <= 1
 0 <= y_36 <= 1
 0 <= y_37 <= 1
 0 <= y_38 <= 1
 0 <= y_39 <= 1
 0 <= y_40 <= 1
 0 <= y_41 <= 1
 0 <= y_42 <= 1
 0 <= y_43 <= 1
 0 <= y_44 <= 1
 0 <= y_45 <= 1
 0 <= y_46 <= 1
 0 <= y_47 <= 1
 0 <= y_48 <= 1
 0 <= y_49 <= 1
 0 <= y_50 <= 1
 0 <= y_51 <= 1
 0 <= y_52 <= 1
 0 <= y_53 <= 1
 0 <= y_54 <= 1
 0 <= y_55 <= 1
 0 <= y_56 <= 1
 0 <= y_57 <= 1
 0 <= y_58 <= 1
 0 <= y_59 <= 1
 0 <= y_60 <= 1
 0 <= y_61 <= 1
 0 <= y_62 <= 1
 0 <= y_63 <= 1
 0 <= y_64 <= 1
 0 <= y_65 <= 1
 0 <= y_66 <= 1
 0 <= y_67 <= 1
 0 <= y_68 <= 1
 0 <= y_69 <= 1
 0 <= y_70 <= 1
 0 <= y_71 <= 1
 0 <= y_72 <= 1
 0 <= y_73 <= 1
 0 <= y_74 <= 1
 0 <= y_75 <= 1
 0 <= y_76 <= 1
 0 <= y_77 <= 1
 0 <= y_78 <= 1
 0 <= y_79 <= 1
 0 <= y_80 <= 1
 0 <= y_81 <= 1
 0 <= y_82 <= 1
 0 <= y_83 <= 1
 0 <= y_84 <= 1
 0 <= y_85 <= 1
 0 <= y_86 <= 1
 0 <= y_87 <= 1
 0 <= y_88 <= 1
 0 <= y_89 <= 1
 0 <= y_90 <= 1
 0 <= y_91 <= 1
 0 <= y_92 <= 1
 0 <= y_93 <= 1
 0 <= y_94 <= 1
 0 <= y_95 <= 1
 0 <= y_96 <= 1
 0 <= y_97 <= 1
 0 <= y_98 <= 1
 0 <= y_99 <= 1
 0 <= xij_0_2 <= 1
 0 <= xij_1_2 <= 1
 0 <= xij_2_5 <= 1
 0 <= xij_3_1 <= 1
 0 <= xij_3_4 <= 1
 0 <= xij_4_5 <= 1
 0 <= xij_5_3 <= 1
 0 <= xij_5_5 <= 1
 0 <= xij_6_5 <= 1
 0 <= xij_6_1 <= 1
 0 <= xij_7_5 <= 1
 0 <= xij_7_2 <= 1
 0 <= xij_8_5 <= 1
 0 <= xij_8_3 <= 1
 0 <= xij_9_4 <= 1
 0 <= xij_10_1 <= 1
 0 <= xij_10_4 <= 1
 0 <= xij_11_3 <= 1
 0 <= xij_11_1 <= 1
 0 <= xij_12_5 <= 1
 0 <= xij_12_3 <= 1
 0 <= xij_13_4 <= 1
 0 <= xij_13_1 <= 1
 0 <= xij_14_3 <= 1
 0 <= xij_14_4 <= 1
 0 <= xij_15_4 <= 1
 0 <= xij_15_1 <= 1
 0 <= xij_16_4 <= 1
 0 <= xij_16_3 <= 1
 0 <= xij_17_3 <= 1
 0 <= xij_17_1 <= 1
 0 <= xij_18_3 <= 1
 0 <= xij_18_5 <= 1
 0 <= xij_19_1 <= 1
 0 <= xij_19_4 <= 1
 0 <= xij_20_4 <= 1
 0 <= xij_21_2 <= 1
 0 <= xij_22_4 <= 1
 0 <= xij_22_3 <= 1
 0 <= xij_23_4 <= 1
 0 <= xij_23_1 <= 1
 0 <= xij_24_3 <= 1
 0 <= xij_24_2 <= 1
 0 <= xij_25_1 <= 1
 0 <= xij_26_1 <= 1
 0 <= xij_26_4 <= 1
 0 <= xij_27_1 <= 1
 0 <= xij_28_1 <= 1
 0 <= xij_29_2 <= 1
 0 <= xij_29_1 <= 1
 0 <= xij_30_3 <= 1
 0 <= xij_31_1 <= 1
 0 <= xij_31_5 <= 1
 0 <= xij_32_5 <= 1
 0 <= xij_32_1 <= 1
 0 <= xij_33_5 <= 1
 0 <= xij_34_3 <= 1
 0 <= xij_35_2 <= 1
 0 <= xij_35_4 <= 1
 0 <= xij_36_2 <= 1
 0 <= xij_36_5 <= 1
 0 <= xij_37_5 <= 1
 0 <= xij_38_3 <= 1
 0 <= xij_38_1 <= 1
 0 <= xij_39_1 <= 1
 0 <= xij_39_2 <= 1
 0 <= xij_40_3 <= 1
 0 <= xij_41_1 <= 1
 0 <= xij_42_3 <= 1
 0 <= xij_43_4 <= 1
 0 <= xij_43_5 <= 1
 0 <= xij_44_3 <= 1
 0 <= xij_44_2 <= 1
 0 <= xij_45_3 <= 1
 0 <= xij_45_5 <= 1
 0 <= xij_46_3 <= 1
 0 <= xij_46_5 <= 1
 0 <= xij_47_4 <= 1
 0 <= xij_48_3 <= 1
 0 <= xij_49_4 <= 1
 0 <= xij_50_3 <= 1
 0 <= xij_51_1 <= 1
 0 <= xij_51_5 <= 1
 0 <= xij_52_3 <= 1
 0 <= xij_53_1 <= 1
 0 <= xij_54_2 <= 1
 0 <= xij_55_2 <= 1
 0 <= xij_55_3 <= 1
 0 <= xij_56_1 <= 1
 0 <= xij_56_5 <= 1
 0 <= xij_57_4 <= 1
 0 <= xij_58_2 <= 1
 0 <= xij_59_5 <= 1
 0 <= xij_60_4 <= 1
 0 <= xij_61_4 <= 1
 0 <= xij_62_3 <= 1
 0 <= xij_62_1 <= 1
 0 <= xij_63_5 <= 1
 0 <= xij_64_1 <= 1
 0 <= xij_64_3 <= 1
 0 <= xij_65_3 <= 1
 0 <= xij_66_4 <= 1
 0 <= xij_67_2 <= 1
 0 <= xij_67_1 <= 1
 0 <= xij_68_4 <= 1
 0 <= xij_69_5 <= 1
 0 <= xij_69_1 <= 1
 0 <= xij_70_2 <= 1
 0 <= xij_71_1 <= 1
 0 <= xij_72_3 <= 1
 0 <= xij_73_4 <= 1
 0 <= xij_74_2 <= 1
 0 <= xij_74_3 <= 1
 0 <= xij_75_3 <= 1
 0 <= xij_76_2 <= 1
 0 <= xij_76_5 <= 1
 0 <= xij_77_2 <= 1
 0 <= xij_77_3 <= 1
 0 <= xij_78_3 <= 1
 0 <= xij_78_2 <= 1
 0 <= xij_79_2 <= 1
 0 <= xij_79_4 <= 1
 0 <= xij_80_5 <= 1
 0 <= xij_80_1 <= 1
 0 <= xij_81_3 <= 1
 0 <= xij_81_2 <= 1
 0 <= xij_82_4 <= 1
 0 <= xij_82_3 <= 1
 0 <= xij_83_5 <= 1
 0 <= xij_84_3 <= 1
 0 <= xij_85_5 <= 1
 0 <= xij_85_3 <= 1
 0 <= xij_86_3 <= 1
 0 <= xij_86_4 <= 1
 0 <= xij_87_1 <= 1
 0 <= xij_87_3 <= 1
 0 <= xij_88_1 <= 1
 0 <= xij_89_4 <= 1
 0 <= xij_90_5 <= 1
 0 <= xij_91_2 <= 1
 0 <= xij_91_1 <= 1
 0 <= xij_92_1 <= 1
 0 <= xij_92_2 <= 1
 0 <= xij_93_2 <= 1
 0 <= xij_94_1 <= 1
 0 <= xij_95_1 <= 1
 0 <= xij_95_4 <= 1
 0 <= xij_96_2 <= 1
 0 <= xij_96_4 <= 1
 0 <= xij_97_3 <= 1
 0 <= xij_98_2 <= 1
 0 <= xij_99_2 <= 1
 0 <= xij_99_1 <= 1
End
